g3 1 1 0	# problem unknown
 10 0 1 0 0 	# vars, constraints, objectives, ranges, eqns
 0 1 0 0 0 0	# nonlinear constrs, objs; ccons: lin, nonlin, nd, nzlb
 0 0	# network constraints: nonlinear, linear
 0 10 0 	# nonlinear vars in constraints, objectives, both
 0 0 0 1	# linear network variables; functions; arith, flags
 0 0 0 0 0 	# discrete variables: binary, integer, nonlinear (b,c,o)
 0 10 	# nonzeros in Jacobian, obj. gradient
 0 0	# max name lengths: constraints, variables
 0 0 0 0 0	# common exprs: b,c,o,c1,o1
O0 0
o54
200
o2
o16
o5
v0
n2
o5
v0
n4
o2
o16
o5
v0
n2
o5
v1
n4
o2
o16
o5
v0
n2
o5
v2
n4
o2
o16
o5
v0
n2
o5
v3
n4
o2
o16
o5
v0
n2
o5
v4
n4
o2
o16
o5
v0
n2
o5
v5
n4
o2
o16
o5
v0
n2
o5
v6
n4
o2
o16
o5
v0
n2
o5
v7
n4
o2
o16
o5
v0
n2
o5
v8
n4
o2
o16
o5
v0
n2
o5
v9
n4
o2
o16
o5
v1
n2
o5
v0
n4
o2
o16
o5
v1
n2
o5
v1
n4
o2
o16
o5
v1
n2
o5
v2
n4
o2
o16
o5
v1
n2
o5
v3
n4
o2
o16
o5
v1
n2
o5
v4
n4
o2
o16
o5
v1
n2
o5
v5
n4
o2
o16
o5
v1
n2
o5
v6
n4
o2
o16
o5
v1
n2
o5
v7
n4
o2
o16
o5
v1
n2
o5
v8
n4
o2
o16
o5
v1
n2
o5
v9
n4
o2
o16
o5
v2
n2
o5
v0
n4
o2
o16
o5
v2
n2
o5
v1
n4
o2
o16
o5
v2
n2
o5
v2
n4
o2
o16
o5
v2
n2
o5
v3
n4
o2
o16
o5
v2
n2
o5
v4
n4
o2
o16
o5
v2
n2
o5
v5
n4
o2
o16
o5
v2
n2
o5
v6
n4
o2
o16
o5
v2
n2
o5
v7
n4
o2
o16
o5
v2
n2
o5
v8
n4
o2
o16
o5
v2
n2
o5
v9
n4
o2
o16
o5
v3
n2
o5
v0
n4
o2
o16
o5
v3
n2
o5
v1
n4
o2
o16
o5
v3
n2
o5
v2
n4
o2
o16
o5
v3
n2
o5
v3
n4
o2
o16
o5
v3
n2
o5
v4
n4
o2
o16
o5
v3
n2
o5
v5
n4
o2
o16
o5
v3
n2
o5
v6
n4
o2
o16
o5
v3
n2
o5
v7
n4
o2
o16
o5
v3
n2
o5
v8
n4
o2
o16
o5
v3
n2
o5
v9
n4
o2
o16
o5
v4
n2
o5
v0
n4
o2
o16
o5
v4
n2
o5
v1
n4
o2
o16
o5
v4
n2
o5
v2
n4
o2
o16
o5
v4
n2
o5
v3
n4
o2
o16
o5
v4
n2
o5
v4
n4
o2
o16
o5
v4
n2
o5
v5
n4
o2
o16
o5
v4
n2
o5
v6
n4
o2
o16
o5
v4
n2
o5
v7
n4
o2
o16
o5
v4
n2
o5
v8
n4
o2
o16
o5
v4
n2
o5
v9
n4
o2
o16
o5
v5
n2
o5
v0
n4
o2
o16
o5
v5
n2
o5
v1
n4
o2
o16
o5
v5
n2
o5
v2
n4
o2
o16
o5
v5
n2
o5
v3
n4
o2
o16
o5
v5
n2
o5
v4
n4
o2
o16
o5
v5
n2
o5
v5
n4
o2
o16
o5
v5
n2
o5
v6
n4
o2
o16
o5
v5
n2
o5
v7
n4
o2
o16
o5
v5
n2
o5
v8
n4
o2
o16
o5
v5
n2
o5
v9
n4
o2
o16
o5
v6
n2
o5
v0
n4
o2
o16
o5
v6
n2
o5
v1
n4
o2
o16
o5
v6
n2
o5
v2
n4
o2
o16
o5
v6
n2
o5
v3
n4
o2
o16
o5
v6
n2
o5
v4
n4
o2
o16
o5
v6
n2
o5
v5
n4
o2
o16
o5
v6
n2
o5
v6
n4
o2
o16
o5
v6
n2
o5
v7
n4
o2
o16
o5
v6
n2
o5
v8
n4
o2
o16
o5
v6
n2
o5
v9
n4
o2
o16
o5
v7
n2
o5
v0
n4
o2
o16
o5
v7
n2
o5
v1
n4
o2
o16
o5
v7
n2
o5
v2
n4
o2
o16
o5
v7
n2
o5
v3
n4
o2
o16
o5
v7
n2
o5
v4
n4
o2
o16
o5
v7
n2
o5
v5
n4
o2
o16
o5
v7
n2
o5
v6
n4
o2
o16
o5
v7
n2
o5
v7
n4
o2
o16
o5
v7
n2
o5
v8
n4
o2
o16
o5
v7
n2
o5
v9
n4
o2
o16
o5
v8
n2
o5
v0
n4
o2
o16
o5
v8
n2
o5
v1
n4
o2
o16
o5
v8
n2
o5
v2
n4
o2
o16
o5
v8
n2
o5
v3
n4
o2
o16
o5
v8
n2
o5
v4
n4
o2
o16
o5
v8
n2
o5
v5
n4
o2
o16
o5
v8
n2
o5
v6
n4
o2
o16
o5
v8
n2
o5
v7
n4
o2
o16
o5
v8
n2
o5
v8
n4
o2
o16
o5
v8
n2
o5
v9
n4
o2
o16
o5
v9
n2
o5
v0
n4
o2
o16
o5
v9
n2
o5
v1
n4
o2
o16
o5
v9
n2
o5
v2
n4
o2
o16
o5
v9
n2
o5
v3
n4
o2
o16
o5
v9
n2
o5
v4
n4
o2
o16
o5
v9
n2
o5
v5
n4
o2
o16
o5
v9
n2
o5
v6
n4
o2
o16
o5
v9
n2
o5
v7
n4
o2
o16
o5
v9
n2
o5
v8
n4
o2
o16
o5
v9
n2
o5
v9
n4
o2
o5
v0
n3
o5
v0
n3
o2
o5
v0
n3
o5
v1
n3
o2
o5
v0
n3
o5
v2
n3
o2
o5
v0
n3
o5
v3
n3
o2
o5
v0
n3
o5
v4
n3
o2
o5
v0
n3
o5
v5
n3
o2
o5
v0
n3
o5
v6
n3
o2
o5
v0
n3
o5
v7
n3
o2
o5
v0
n3
o5
v8
n3
o2
o5
v0
n3
o5
v9
n3
o2
o5
v1
n3
o5
v0
n3
o2
o5
v1
n3
o5
v1
n3
o2
o5
v1
n3
o5
v2
n3
o2
o5
v1
n3
o5
v3
n3
o2
o5
v1
n3
o5
v4
n3
o2
o5
v1
n3
o5
v5
n3
o2
o5
v1
n3
o5
v6
n3
o2
o5
v1
n3
o5
v7
n3
o2
o5
v1
n3
o5
v8
n3
o2
o5
v1
n3
o5
v9
n3
o2
o5
v2
n3
o5
v0
n3
o2
o5
v2
n3
o5
v1
n3
o2
o5
v2
n3
o5
v2
n3
o2
o5
v2
n3
o5
v3
n3
o2
o5
v2
n3
o5
v4
n3
o2
o5
v2
n3
o5
v5
n3
o2
o5
v2
n3
o5
v6
n3
o2
o5
v2
n3
o5
v7
n3
o2
o5
v2
n3
o5
v8
n3
o2
o5
v2
n3
o5
v9
n3
o2
o5
v3
n3
o5
v0
n3
o2
o5
v3
n3
o5
v1
n3
o2
o5
v3
n3
o5
v2
n3
o2
o5
v3
n3
o5
v3
n3
o2
o5
v3
n3
o5
v4
n3
o2
o5
v3
n3
o5
v5
n3
o2
o5
v3
n3
o5
v6
n3
o2
o5
v3
n3
o5
v7
n3
o2
o5
v3
n3
o5
v8
n3
o2
o5
v3
n3
o5
v9
n3
o2
o5
v4
n3
o5
v0
n3
o2
o5
v4
n3
o5
v1
n3
o2
o5
v4
n3
o5
v2
n3
o2
o5
v4
n3
o5
v3
n3
o2
o5
v4
n3
o5
v4
n3
o2
o5
v4
n3
o5
v5
n3
o2
o5
v4
n3
o5
v6
n3
o2
o5
v4
n3
o5
v7
n3
o2
o5
v4
n3
o5
v8
n3
o2
o5
v4
n3
o5
v9
n3
o2
o5
v5
n3
o5
v0
n3
o2
o5
v5
n3
o5
v1
n3
o2
o5
v5
n3
o5
v2
n3
o2
o5
v5
n3
o5
v3
n3
o2
o5
v5
n3
o5
v4
n3
o2
o5
v5
n3
o5
v5
n3
o2
o5
v5
n3
o5
v6
n3
o2
o5
v5
n3
o5
v7
n3
o2
o5
v5
n3
o5
v8
n3
o2
o5
v5
n3
o5
v9
n3
o2
o5
v6
n3
o5
v0
n3
o2
o5
v6
n3
o5
v1
n3
o2
o5
v6
n3
o5
v2
n3
o2
o5
v6
n3
o5
v3
n3
o2
o5
v6
n3
o5
v4
n3
o2
o5
v6
n3
o5
v5
n3
o2
o5
v6
n3
o5
v6
n3
o2
o5
v6
n3
o5
v7
n3
o2
o5
v6
n3
o5
v8
n3
o2
o5
v6
n3
o5
v9
n3
o2
o5
v7
n3
o5
v0
n3
o2
o5
v7
n3
o5
v1
n3
o2
o5
v7
n3
o5
v2
n3
o2
o5
v7
n3
o5
v3
n3
o2
o5
v7
n3
o5
v4
n3
o2
o5
v7
n3
o5
v5
n3
o2
o5
v7
n3
o5
v6
n3
o2
o5
v7
n3
o5
v7
n3
o2
o5
v7
n3
o5
v8
n3
o2
o5
v7
n3
o5
v9
n3
o2
o5
v8
n3
o5
v0
n3
o2
o5
v8
n3
o5
v1
n3
o2
o5
v8
n3
o5
v2
n3
o2
o5
v8
n3
o5
v3
n3
o2
o5
v8
n3
o5
v4
n3
o2
o5
v8
n3
o5
v5
n3
o2
o5
v8
n3
o5
v6
n3
o2
o5
v8
n3
o5
v7
n3
o2
o5
v8
n3
o5
v8
n3
o2
o5
v8
n3
o5
v9
n3
o2
o5
v9
n3
o5
v0
n3
o2
o5
v9
n3
o5
v1
n3
o2
o5
v9
n3
o5
v2
n3
o2
o5
v9
n3
o5
v3
n3
o2
o5
v9
n3
o5
v4
n3
o2
o5
v9
n3
o5
v5
n3
o2
o5
v9
n3
o5
v6
n3
o2
o5
v9
n3
o5
v7
n3
o2
o5
v9
n3
o5
v8
n3
o2
o5
v9
n3
o5
v9
n3
x0
r
b
0 0.0 1.0
0 0.0 1.0
0 0.0 1.0
0 0.0 1.0
0 0.0 1.0
0 0.0 1.0
0 0.0 1.0
0 0.0 1.0
0 0.0 1.0
0 0.0 1.0
k9
0
0
0
0
0
0
0
0
0
G0 10
0 0
1 0
2 0
3 0
4 0
5 0
6 0
7 0
8 0
9 0
